&CONTROL
  calculation = 'scf'
  prefix = 'yh10'
  outdir = './tmp'
  pseudo_dir = '../pseudo'
  tprnfor = .true.
  tstress = .true.
/
&SYSTEM
  ibrav = 0
  nat = 11
  ntyp = 2
  ecutwfc = 80
  ecutrho = 800
  occupations = 'smearing'
  smearing = 'mp'
  degauss = 0.02
/
&ELECTRONS
  conv_thr = 1.0d-12
  mixing_beta = 0.4
  electron_maxstep = 400
/
ATOMIC_SPECIES
  Y   88.906  Y.UPF
  H   1.008   H.UPF
CELL_PARAMETERS bohr
  -4.4344498542  0.0000000000  4.4344498542
  -0.0000000000  4.4344498542  4.4344498542
  -4.4344498542  4.4344498542  0.0000000000
ATOMIC_POSITIONS crystal
  Y    -0.0000000000  0.0000000000  0.0000000000
  H    0.7500000000  0.7500000000  0.7500000000
  H    0.2500000000  0.2500000000  0.2500000000
  H    0.6210917628  0.1367247117  0.6210917628
  H    0.3789082372  0.8632752883  0.3789082372
  H    0.3789082372  0.3789082372  0.3789082372
  H    0.6210917628  0.6210917628  0.6210917628
  H    0.1367247117  0.6210917628  0.6210917628
  H    0.8632752883  0.3789082372  0.3789082372
  H    0.3789082372  0.3789082372  0.8632752883
  H    0.6210917628  0.6210917628  0.1367247117
K_POINTS automatic
  12 12 12 0 0 0
