--
phonons + electron-phonon (CeH9)
&INPUTPH
  prefix = 'ceh9'
  outdir = './tmp'
  fildyn = 'ceh9.dyn'
  fildvscf = 'dvscf'
  electron_phonon = 'simple'
  trans = .true.
  ldisp = .true.
  nq1 = 4
  nq2 = 4
  nq3 = 4
  tr2_ph = 1.0d-14
  el_ph_sigma = 0.005
  el_ph_nsigma = 10
/
